* ENCODING=ISO-8859-1
NAME          ./convert/K5020W11.KNP.mps
ROWS
 N  OBJROW            
 L  R0000000          
 L  IC0               
 L  IC1               
 L  IC2               
 L  IC3               
 L  IC4               
 L  IC5               
 L  IC6               
 L  IC7               
 L  IC8               
 L  IC9               
 L  IC10              
 L  IC11              
 L  IC12              
 L  IC13              
 L  IC14              
 L  IC15              
 L  IC16              
 L  IC17              
 L  IC18              
 L  IC19              
 L  interdictionBudget
COLUMNS
    MARK0000  'MARKER'                 'INTORG'
    C0000000            OBJROW                                  550
    C0000000            R0000000                                 66
    C0000000            IC0                                       1
    C0000001            OBJROW                                  211
    C0000001            R0000000                                953
    C0000001            IC1                                       1
    C0000002            OBJROW                                  415
    C0000002            R0000000                                200
    C0000002            IC2                                       1
    C0000003            OBJROW                                  235
    C0000003            R0000000                                 75
    C0000003            IC3                                       1
    C0000004            OBJROW                                  543
    C0000004            R0000000                                230
    C0000004            IC4                                       1
    C0000005            OBJROW                                  796
    C0000005            R0000000                                957
    C0000005            IC5                                       1
    C0000006            OBJROW                                  895
    C0000006            R0000000                                942
    C0000006            IC6                                       1
    C0000007            OBJROW                                  466
    C0000007            R0000000                                101
    C0000007            IC7                                       1
    C0000008            OBJROW                                  432
    C0000008            R0000000                                406
    C0000008            IC8                                       1
    C0000009            OBJROW                                  842
    C0000009            R0000000                                821
    C0000009            IC9                                       1
    C0000010            OBJROW                                  705
    C0000010            R0000000                                 38
    C0000010            IC10                                      1
    C0000011            OBJROW                                  682
    C0000011            R0000000                                851
    C0000011            IC11                                      1
    C0000012            OBJROW                                  183
    C0000012            R0000000                                984
    C0000012            IC12                                      1
    C0000013            OBJROW                                  316
    C0000013            R0000000                                  3
    C0000013            IC13                                      1
    C0000014            OBJROW                                  375
    C0000014            R0000000                                536
    C0000014            IC14                                      1
    C0000015            OBJROW                                    4
    C0000015            R0000000                                 51
    C0000015            IC15                                      1
    C0000016            OBJROW                                  439
    C0000016            R0000000                                830
    C0000016            IC16                                      1
    C0000017            OBJROW                                  388
    C0000017            R0000000                                428
    C0000017            IC17                                      1
    C0000018            OBJROW                                  159
    C0000018            R0000000                                351
    C0000018            IC18                                      1
    C0000019            OBJROW                                   66
    C0000019            R0000000                                866
    C0000019            IC19                                      1
    x0                  IC0                                       1
    x0                  interdictionBudget                      444
    x1                  IC1                                       1
    x1                  interdictionBudget                      207
    x2                  IC2                                       1
    x2                  interdictionBudget                      628
    x3                  IC3                                       1
    x3                  interdictionBudget                      437
    x4                  IC4                                       1
    x4                  interdictionBudget                      709
    x5                  IC5                                       1
    x5                  interdictionBudget                      477
    x6                  IC6                                       1
    x6                  interdictionBudget                      637
    x7                  IC7                                       1
    x7                  interdictionBudget                      869
    x8                  IC8                                       1
    x8                  interdictionBudget                      758
    x9                  IC9                                       1
    x9                  interdictionBudget                      571
    x10                 IC10                                      1
    x10                 interdictionBudget                      607
    x11                 IC11                                      1
    x11                 interdictionBudget                       84
    x12                 IC12                                      1
    x12                 interdictionBudget                      477
    x13                 IC13                                      1
    x13                 interdictionBudget                      485
    x14                 IC14                                      1
    x14                 interdictionBudget                      933
    x15                 IC15                                      1
    x15                 interdictionBudget                      917
    x16                 IC16                                      1
    x16                 interdictionBudget                      173
    x17                 IC17                                      1
    x17                 interdictionBudget                      141
    x18                 IC18                                      1
    x18                 interdictionBudget                      470
    x19                 IC19                                      1
    x19                 interdictionBudget                      933
    MARK0001  'MARKER'                 'INTEND'
RHS
    rhs                 R0000000                               4844
    rhs                 IC0                                       1
    rhs                 IC1                                       1
    rhs                 IC2                                       1
    rhs                 IC3                                       1
    rhs                 IC4                                       1
    rhs                 IC5                                       1
    rhs                 IC6                                       1
    rhs                 IC7                                       1
    rhs                 IC8                                       1
    rhs                 IC9                                       1
    rhs                 IC10                                      1
    rhs                 IC11                                      1
    rhs                 IC12                                      1
    rhs                 IC13                                      1
    rhs                 IC14                                      1
    rhs                 IC15                                      1
    rhs                 IC16                                      1
    rhs                 IC17                                      1
    rhs                 IC18                                      1
    rhs                 IC19                                      1
    rhs                 interdictionBudget                     5479
BOUNDS
 UP bnd                 C0000000                                  1
 UP bnd                 C0000001                                  1
 UP bnd                 C0000002                                  1
 UP bnd                 C0000003                                  1
 UP bnd                 C0000004                                  1
 UP bnd                 C0000005                                  1
 UP bnd                 C0000006                                  1
 UP bnd                 C0000007                                  1
 UP bnd                 C0000008                                  1
 UP bnd                 C0000009                                  1
 UP bnd                 C0000010                                  1
 UP bnd                 C0000011                                  1
 UP bnd                 C0000012                                  1
 UP bnd                 C0000013                                  1
 UP bnd                 C0000014                                  1
 UP bnd                 C0000015                                  1
 UP bnd                 C0000016                                  1
 UP bnd                 C0000017                                  1
 UP bnd                 C0000018                                  1
 UP bnd                 C0000019                                  1
 UP bnd                 x0                                        1
 UP bnd                 x1                                        1
 UP bnd                 x2                                        1
 UP bnd                 x3                                        1
 UP bnd                 x4                                        1
 UP bnd                 x5                                        1
 UP bnd                 x6                                        1
 UP bnd                 x7                                        1
 UP bnd                 x8                                        1
 UP bnd                 x9                                        1
 UP bnd                 x10                                       1
 UP bnd                 x11                                       1
 UP bnd                 x12                                       1
 UP bnd                 x13                                       1
 UP bnd                 x14                                       1
 UP bnd                 x15                                       1
 UP bnd                 x16                                       1
 UP bnd                 x17                                       1
 UP bnd                 x18                                       1
 UP bnd                 x19                                       1
ENDATA
